(set-info :source |printed by MathSAT|)
(declare-fun .x.14 () Int)
(declare-fun .x.15 () Int)
(declare-fun main@%.0.i_0_0 () Int)
(declare-fun .x.16 () Int)
(declare-fun main@%_1_0_0 () Int)
(declare-fun main@%_1_1 () Int)
(declare-fun main@%assume.flag.0_0_0 () Bool)
(declare-fun .x.17 () Bool)
(declare-fun main@%_4_0_0 () Int)
(declare-fun main@%_4_1 () Int)
(declare-fun main@%shadow.mem.0.5_0_0 () (Array Int Int))
(declare-fun .x.18 () (Array Int Int))
(declare-fun main@%_3_0_0 () Bool)
(declare-fun main@%_3_1 () Bool)
(declare-fun main@%.4.i1_0_0 () Int)
(declare-fun .x.19 () Int)
(declare-fun main@%shadow.mem.0.4_0_0 () (Array Int Int))
(declare-fun .x.20 () (Array Int Int))
(declare-fun main@%_2_0_0 () Bool)
(declare-fun main@%_2_1 () Bool)
(declare-fun main@%.3.i2_0_0 () Int)
(declare-fun .x.21 () Int)
(declare-fun main@%shadow.mem.0.3_0_0 () (Array Int Int))
(declare-fun .x.22 () (Array Int Int))
(declare-fun main@%.2.i6_0_0 () Int)
(declare-fun .x.23 () Int)
(declare-fun main@%shadow.mem.0.2_0_0 () (Array Int Int))
(declare-fun .x.24 () (Array Int Int))
(declare-fun main@%.1.i10_0_0 () Int)
(declare-fun .x.25 () Int)
(declare-fun main@%shadow.mem.0.1_0_0 () (Array Int Int))
(declare-fun .x.26 () (Array Int Int))
(declare-fun main@%.01.i14_0_0 () Int)
(declare-fun main@%.01.i14_2 () Int)
(declare-fun main@%shadow.mem.0.0_0_0 () (Array Int Int))
(declare-fun main@%shadow.mem.0.0_2 () (Array Int Int))
(declare-fun @nd_0_0 () Int)
(declare-fun .x.27 () Int)
(define-fun .def_8 () Int (! .x.14 :next |.x.15|))
(define-fun .def_10 () Int (! main@%.0.i_0_0 :next |.x.16|))
(define-fun .def_12 () Int (! main@%_1_0_0 :next |main@%_1_1|))
(define-fun .def_14 () Bool (! main@%assume.flag.0_0_0 :next |.x.17|))
(define-fun .def_16 () Int (! main@%_4_0_0 :next |main@%_4_1|))
(define-fun .def_18 () (Array Int Int) (! main@%shadow.mem.0.5_0_0 :next |.x.18|))
(define-fun .def_20 () Bool (! main@%_3_0_0 :next |main@%_3_1|))
(define-fun .def_22 () Int (! main@%.4.i1_0_0 :next |.x.19|))
(define-fun .def_24 () (Array Int Int) (! main@%shadow.mem.0.4_0_0 :next |.x.20|))
(define-fun .def_26 () Bool (! main@%_2_0_0 :next |main@%_2_1|))
(define-fun .def_28 () Int (! main@%.3.i2_0_0 :next |.x.21|))
(define-fun .def_30 () (Array Int Int) (! main@%shadow.mem.0.3_0_0 :next |.x.22|))
(define-fun .def_32 () Int (! main@%.2.i6_0_0 :next |.x.23|))
(define-fun .def_34 () (Array Int Int) (! main@%shadow.mem.0.2_0_0 :next |.x.24|))
(define-fun .def_36 () Int (! main@%.1.i10_0_0 :next |.x.25|))
(define-fun .def_38 () (Array Int Int) (! main@%shadow.mem.0.1_0_0 :next |.x.26|))
(define-fun .def_40 () Int (! main@%.01.i14_0_0 :next |main@%.01.i14_2|))
(define-fun .def_42 () (Array Int Int) (! main@%shadow.mem.0.0_0_0 :next |main@%shadow.mem.0.0_2|))
(define-fun .def_44 () Int (! @nd_0_0 :next |.x.27|))
(define-fun .def_480 () Bool (! (= .def_8 0) :init true))
(define-fun .def_503 () Bool (= .def_44 .x.27))
(define-fun .def_477 () Bool (<= main@%_4_1 0))
(define-fun .def_478 () Bool (not .def_477))
(define-fun .def_473 () Bool (<= main@%_1_1 0))
(define-fun .def_474 () Bool (not .def_473))
(define-fun .def_475 () Bool (= main@%_2_1 .def_474))
(define-fun .def_472 () Bool (= main@%_3_1 main@%_2_1))
(define-fun .def_476 () Bool (and .def_472 .def_475))
(define-fun .def_479 () Bool (and .def_476 .def_478))
(define-fun .def_481 () Bool (and .def_479 .def_480))
(define-fun .def_469 () Bool (= main@%.01.i14_2 0))
(define-fun .def_438 () Bool (= .x.15 1))
(define-fun .def_465 () Bool (and main@%_2_1 .def_438))
(define-fun .def_46 () Bool (= .def_10 .x.16))
(define-fun .def_466 () Bool (and .def_46 .def_465))
(define-fun .def_48 () Bool (= .def_14 .x.17))
(define-fun .def_467 () Bool (and .def_48 .def_466))
(define-fun .def_50 () Bool (= .def_18 .x.18))
(define-fun .def_468 () Bool (and .def_50 .def_467))
(define-fun .def_470 () Bool (and .def_468 .def_469))
(define-fun .def_459 () Bool (= .x.17 main@%_3_1))
(define-fun .def_142 () Bool (= .x.16 0))
(define-fun .def_460 () Bool (and .def_142 .def_459))
(define-fun .def_458 () Bool (not main@%_2_1))
(define-fun .def_461 () Bool (and .def_458 .def_460))
(define-fun .def_111 () Bool (= .x.15 6))
(define-fun .def_462 () Bool (and .def_111 .def_461))
(define-fun .def_68 () Bool (= .def_40 main@%.01.i14_2))
(define-fun .def_463 () Bool (and .def_68 .def_462))
(define-fun .def_70 () Bool (= .def_42 main@%shadow.mem.0.0_2))
(define-fun .def_464 () Bool (and .def_70 .def_463))
(define-fun .def_471 () Bool (or .def_464 .def_470))
(define-fun .def_482 () Bool (and .def_471 .def_481))
(define-fun .def_401 () Int (* (- 1) .def_40))
(define-fun .def_402 () Int (+ .def_12 .def_401))
(define-fun .def_403 () Bool (<= .def_402 1))
(define-fun .def_449 () Bool (not .def_403))
(define-fun .def_445 () Int (* (- 1) main@%.01.i14_2))
(define-fun .def_446 () Int (+ .def_40 .def_445))
(define-fun .def_447 () Bool (= .def_446 (- 1)))
(define-fun .def_406 () Int (+ .def_16 .def_40))
(define-fun .def_419 () (Array Int Int) (store .def_42 .def_406 42))
(define-fun .def_442 () Bool (= main@%shadow.mem.0.0_2 .def_419))
(define-fun .def_439 () Bool (and .def_46 .def_438))
(define-fun .def_440 () Bool (and .def_48 .def_439))
(define-fun .def_441 () Bool (and .def_50 .def_440))
(define-fun .def_443 () Bool (and .def_441 .def_442))
(define-fun .def_448 () Bool (and .def_443 .def_447))
(define-fun .def_450 () Bool (and .def_448 .def_449))
(define-fun .def_73 () Bool (<= .def_16 0))
(define-fun .def_74 () Bool (not .def_73))
(define-fun .def_451 () Bool (and .def_74 .def_450))
(define-fun .def_407 () Bool (<= .def_406 0))
(define-fun .def_408 () Bool (not .def_407))
(define-fun .def_409 () Bool (or .def_73 .def_408))
(define-fun .def_452 () Bool (and .def_409 .def_451))
(define-fun .def_411 () Bool (= .def_8 1))
(define-fun .def_453 () Bool (and .def_411 .def_452))
(define-fun .def_76 () Bool (= .def_12 main@%_1_1))
(define-fun .def_454 () Bool (and .def_76 .def_453))
(define-fun .def_78 () Bool (= .def_16 main@%_4_1))
(define-fun .def_455 () Bool (and .def_78 .def_454))
(define-fun .def_80 () Bool (= .def_20 main@%_3_1))
(define-fun .def_456 () Bool (and .def_80 .def_455))
(define-fun .def_82 () Bool (= .def_26 main@%_2_1))
(define-fun .def_457 () Bool (and .def_82 .def_456))
(define-fun .def_483 () Bool (or .def_457 .def_482))
(define-fun .def_66 () Bool (= .def_38 .x.26))
(define-fun .def_64 () Bool (= .def_36 .x.25))
(define-fun .def_396 () Bool (and .def_64 .def_66))
(define-fun .def_484 () Bool (and .def_396 .def_483))
(define-fun .def_435 () Bool (= .x.25 0))
(define-fun .def_433 () Bool (= .x.26 .def_419))
(define-fun .def_211 () Bool (and .def_26 .def_46))
(define-fun .def_212 () Bool (and .def_48 .def_211))
(define-fun .def_213 () Bool (and .def_50 .def_212))
(define-fun .def_423 () Bool (and .def_68 .def_213))
(define-fun .def_424 () Bool (and .def_70 .def_423))
(define-fun .def_425 () Bool (and .def_403 .def_424))
(define-fun .def_426 () Bool (and .def_74 .def_425))
(define-fun .def_427 () Bool (and .def_409 .def_426))
(define-fun .def_428 () Bool (and .def_411 .def_427))
(define-fun .def_429 () Bool (and .def_76 .def_428))
(define-fun .def_430 () Bool (and .def_78 .def_429))
(define-fun .def_431 () Bool (and .def_80 .def_430))
(define-fun .def_432 () Bool (and .def_82 .def_431))
(define-fun .def_434 () Bool (and .def_432 .def_433))
(define-fun .def_436 () Bool (and .def_434 .def_435))
(define-fun .def_384 () Bool (= .x.15 2))
(define-fun .def_437 () Bool (and .def_384 .def_436))
(define-fun .def_485 () Bool (or .def_437 .def_484))
(define-fun .def_420 () Bool (= .x.18 .def_419))
(define-fun .def_397 () Bool (and .def_142 .def_396))
(define-fun .def_398 () Bool (and .def_111 .def_397))
(define-fun .def_399 () Bool (and .def_68 .def_398))
(define-fun .def_400 () Bool (and .def_70 .def_399))
(define-fun .def_404 () Bool (and .def_400 .def_403))
(define-fun .def_405 () Bool (and .def_74 .def_404))
(define-fun .def_410 () Bool (and .def_405 .def_409))
(define-fun .def_412 () Bool (and .def_410 .def_411))
(define-fun .def_413 () Bool (and .def_76 .def_412))
(define-fun .def_414 () Bool (and .def_78 .def_413))
(define-fun .def_415 () Bool (and .def_80 .def_414))
(define-fun .def_416 () Bool (and .def_82 .def_415))
(define-fun .def_152 () Bool (= .x.17 .def_20))
(define-fun .def_417 () Bool (and .def_152 .def_416))
(define-fun .def_421 () Bool (and .def_417 .def_420))
(define-fun .def_193 () Bool (not .def_26))
(define-fun .def_422 () Bool (and .def_193 .def_421))
(define-fun .def_486 () Bool (or .def_422 .def_485))
(define-fun .def_344 () Int (* (- 1) .def_36))
(define-fun .def_345 () Int (+ .def_12 .def_344))
(define-fun .def_346 () Bool (<= .def_345 1))
(define-fun .def_392 () Bool (not .def_346))
(define-fun .def_388 () Int (* (- 1) .x.25))
(define-fun .def_389 () Int (+ .def_36 .def_388))
(define-fun .def_390 () Bool (= .def_389 (- 1)))
(define-fun .def_348 () Int (+ .def_16 .def_36))
(define-fun .def_357 () (Array Int Int) (store .def_38 .def_348 43))
(define-fun .def_386 () Bool (= .x.26 .def_357))
(define-fun .def_166 () Bool (and .def_46 .def_48))
(define-fun .def_167 () Bool (and .def_50 .def_166))
(define-fun .def_377 () Bool (and .def_68 .def_167))
(define-fun .def_378 () Bool (and .def_70 .def_377))
(define-fun .def_379 () Bool (and .def_74 .def_378))
(define-fun .def_380 () Bool (and .def_76 .def_379))
(define-fun .def_381 () Bool (and .def_78 .def_380))
(define-fun .def_382 () Bool (and .def_80 .def_381))
(define-fun .def_383 () Bool (and .def_82 .def_382))
(define-fun .def_385 () Bool (and .def_383 .def_384))
(define-fun .def_387 () Bool (and .def_385 .def_386))
(define-fun .def_391 () Bool (and .def_387 .def_390))
(define-fun .def_393 () Bool (and .def_391 .def_392))
(define-fun .def_349 () Bool (<= .def_348 0))
(define-fun .def_350 () Bool (not .def_349))
(define-fun .def_351 () Bool (or .def_73 .def_350))
(define-fun .def_394 () Bool (and .def_351 .def_393))
(define-fun .def_354 () Bool (= .def_8 2))
(define-fun .def_395 () Bool (and .def_354 .def_394))
(define-fun .def_487 () Bool (or .def_395 .def_486))
(define-fun .def_62 () Bool (= .def_34 .x.24))
(define-fun .def_60 () Bool (= .def_32 .x.23))
(define-fun .def_330 () Bool (and .def_60 .def_62))
(define-fun .def_488 () Bool (and .def_330 .def_487))
(define-fun .def_374 () Bool (= .x.23 0))
(define-fun .def_372 () Bool (= .x.24 .def_357))
(define-fun .def_360 () Bool (and .def_64 .def_213))
(define-fun .def_361 () Bool (and .def_66 .def_360))
(define-fun .def_362 () Bool (and .def_68 .def_361))
(define-fun .def_363 () Bool (and .def_70 .def_362))
(define-fun .def_364 () Bool (and .def_74 .def_363))
(define-fun .def_365 () Bool (and .def_76 .def_364))
(define-fun .def_366 () Bool (and .def_78 .def_365))
(define-fun .def_367 () Bool (and .def_80 .def_366))
(define-fun .def_368 () Bool (and .def_82 .def_367))
(define-fun .def_369 () Bool (and .def_346 .def_368))
(define-fun .def_370 () Bool (and .def_351 .def_369))
(define-fun .def_371 () Bool (and .def_354 .def_370))
(define-fun .def_373 () Bool (and .def_371 .def_372))
(define-fun .def_375 () Bool (and .def_373 .def_374))
(define-fun .def_318 () Bool (= .x.15 3))
(define-fun .def_376 () Bool (and .def_318 .def_375))
(define-fun .def_489 () Bool (or .def_376 .def_488))
(define-fun .def_358 () Bool (= .x.18 .def_357))
(define-fun .def_331 () Bool (and .def_64 .def_330))
(define-fun .def_332 () Bool (and .def_66 .def_331))
(define-fun .def_333 () Bool (and .def_142 .def_332))
(define-fun .def_334 () Bool (and .def_111 .def_333))
(define-fun .def_335 () Bool (and .def_68 .def_334))
(define-fun .def_336 () Bool (and .def_70 .def_335))
(define-fun .def_337 () Bool (and .def_74 .def_336))
(define-fun .def_338 () Bool (and .def_76 .def_337))
(define-fun .def_339 () Bool (and .def_78 .def_338))
(define-fun .def_340 () Bool (and .def_80 .def_339))
(define-fun .def_341 () Bool (and .def_82 .def_340))
(define-fun .def_342 () Bool (and .def_152 .def_341))
(define-fun .def_343 () Bool (and .def_193 .def_342))
(define-fun .def_347 () Bool (and .def_343 .def_346))
(define-fun .def_352 () Bool (and .def_347 .def_351))
(define-fun .def_355 () Bool (and .def_352 .def_354))
(define-fun .def_359 () Bool (and .def_355 .def_358))
(define-fun .def_490 () Bool (or .def_359 .def_489))
(define-fun .def_274 () Int (* (- 1) .def_32))
(define-fun .def_275 () Int (+ .def_12 .def_274))
(define-fun .def_276 () Bool (<= .def_275 1))
(define-fun .def_326 () Bool (not .def_276))
(define-fun .def_322 () Int (* (- 1) .x.23))
(define-fun .def_323 () Int (+ .def_32 .def_322))
(define-fun .def_324 () Bool (= .def_323 (- 1)))
(define-fun .def_278 () Int (+ .def_16 .def_32))
(define-fun .def_287 () (Array Int Int) (store .def_34 .def_278 44))
(define-fun .def_320 () Bool (= .x.24 .def_287))
(define-fun .def_309 () Bool (and .def_64 .def_167))
(define-fun .def_310 () Bool (and .def_66 .def_309))
(define-fun .def_311 () Bool (and .def_68 .def_310))
(define-fun .def_312 () Bool (and .def_70 .def_311))
(define-fun .def_313 () Bool (and .def_74 .def_312))
(define-fun .def_314 () Bool (and .def_76 .def_313))
(define-fun .def_315 () Bool (and .def_78 .def_314))
(define-fun .def_316 () Bool (and .def_80 .def_315))
(define-fun .def_317 () Bool (and .def_82 .def_316))
(define-fun .def_319 () Bool (and .def_317 .def_318))
(define-fun .def_321 () Bool (and .def_319 .def_320))
(define-fun .def_325 () Bool (and .def_321 .def_324))
(define-fun .def_327 () Bool (and .def_325 .def_326))
(define-fun .def_279 () Bool (<= .def_278 0))
(define-fun .def_280 () Bool (not .def_279))
(define-fun .def_281 () Bool (or .def_73 .def_280))
(define-fun .def_328 () Bool (and .def_281 .def_327))
(define-fun .def_284 () Bool (= .def_8 3))
(define-fun .def_329 () Bool (and .def_284 .def_328))
(define-fun .def_491 () Bool (or .def_329 .def_490))
(define-fun .def_58 () Bool (= .def_30 .x.22))
(define-fun .def_56 () Bool (= .def_28 .x.21))
(define-fun .def_258 () Bool (and .def_56 .def_58))
(define-fun .def_492 () Bool (and .def_258 .def_491))
(define-fun .def_306 () Bool (= .x.21 0))
(define-fun .def_304 () Bool (= .x.22 .def_287))
(define-fun .def_290 () Bool (and .def_60 .def_213))
(define-fun .def_291 () Bool (and .def_62 .def_290))
(define-fun .def_292 () Bool (and .def_64 .def_291))
(define-fun .def_293 () Bool (and .def_66 .def_292))
(define-fun .def_294 () Bool (and .def_68 .def_293))
(define-fun .def_295 () Bool (and .def_70 .def_294))
(define-fun .def_296 () Bool (and .def_74 .def_295))
(define-fun .def_297 () Bool (and .def_76 .def_296))
(define-fun .def_298 () Bool (and .def_78 .def_297))
(define-fun .def_299 () Bool (and .def_80 .def_298))
(define-fun .def_300 () Bool (and .def_82 .def_299))
(define-fun .def_301 () Bool (and .def_276 .def_300))
(define-fun .def_302 () Bool (and .def_281 .def_301))
(define-fun .def_303 () Bool (and .def_284 .def_302))
(define-fun .def_305 () Bool (and .def_303 .def_304))
(define-fun .def_307 () Bool (and .def_305 .def_306))
(define-fun .def_246 () Bool (= .x.15 4))
(define-fun .def_308 () Bool (and .def_246 .def_307))
(define-fun .def_493 () Bool (or .def_308 .def_492))
(define-fun .def_288 () Bool (= .x.18 .def_287))
(define-fun .def_259 () Bool (and .def_60 .def_258))
(define-fun .def_260 () Bool (and .def_62 .def_259))
(define-fun .def_261 () Bool (and .def_64 .def_260))
(define-fun .def_262 () Bool (and .def_66 .def_261))
(define-fun .def_263 () Bool (and .def_142 .def_262))
(define-fun .def_264 () Bool (and .def_111 .def_263))
(define-fun .def_265 () Bool (and .def_68 .def_264))
(define-fun .def_266 () Bool (and .def_70 .def_265))
(define-fun .def_267 () Bool (and .def_74 .def_266))
(define-fun .def_268 () Bool (and .def_76 .def_267))
(define-fun .def_269 () Bool (and .def_78 .def_268))
(define-fun .def_270 () Bool (and .def_80 .def_269))
(define-fun .def_271 () Bool (and .def_82 .def_270))
(define-fun .def_272 () Bool (and .def_152 .def_271))
(define-fun .def_273 () Bool (and .def_193 .def_272))
(define-fun .def_277 () Bool (and .def_273 .def_276))
(define-fun .def_282 () Bool (and .def_277 .def_281))
(define-fun .def_285 () Bool (and .def_282 .def_284))
(define-fun .def_289 () Bool (and .def_285 .def_288))
(define-fun .def_494 () Bool (or .def_289 .def_493))
(define-fun .def_195 () Int (* (- 1) .def_28))
(define-fun .def_196 () Int (+ .def_12 .def_195))
(define-fun .def_197 () Bool (<= .def_196 1))
(define-fun .def_254 () Bool (not .def_197))
(define-fun .def_250 () Int (* (- 1) .x.21))
(define-fun .def_251 () Int (+ .def_28 .def_250))
(define-fun .def_252 () Bool (= .def_251 (- 1)))
(define-fun .def_199 () Int (+ .def_16 .def_28))
(define-fun .def_208 () (Array Int Int) (store .def_30 .def_199 45))
(define-fun .def_248 () Bool (= .x.22 .def_208))
(define-fun .def_235 () Bool (and .def_60 .def_167))
(define-fun .def_236 () Bool (and .def_62 .def_235))
(define-fun .def_237 () Bool (and .def_64 .def_236))
(define-fun .def_238 () Bool (and .def_66 .def_237))
(define-fun .def_239 () Bool (and .def_68 .def_238))
(define-fun .def_240 () Bool (and .def_70 .def_239))
(define-fun .def_241 () Bool (and .def_74 .def_240))
(define-fun .def_242 () Bool (and .def_76 .def_241))
(define-fun .def_243 () Bool (and .def_78 .def_242))
(define-fun .def_244 () Bool (and .def_80 .def_243))
(define-fun .def_245 () Bool (and .def_82 .def_244))
(define-fun .def_247 () Bool (and .def_245 .def_246))
(define-fun .def_249 () Bool (and .def_247 .def_248))
(define-fun .def_253 () Bool (and .def_249 .def_252))
(define-fun .def_255 () Bool (and .def_253 .def_254))
(define-fun .def_200 () Bool (<= .def_199 0))
(define-fun .def_201 () Bool (not .def_200))
(define-fun .def_202 () Bool (or .def_73 .def_201))
(define-fun .def_256 () Bool (and .def_202 .def_255))
(define-fun .def_205 () Bool (= .def_8 4))
(define-fun .def_257 () Bool (and .def_205 .def_256))
(define-fun .def_495 () Bool (or .def_257 .def_494))
(define-fun .def_54 () Bool (= .def_24 .x.20))
(define-fun .def_52 () Bool (= .def_22 .x.19))
(define-fun .def_135 () Bool (and .def_52 .def_54))
(define-fun .def_496 () Bool (and .def_135 .def_495))
(define-fun .def_232 () Bool (= .x.19 0))
(define-fun .def_230 () Bool (= .x.20 .def_208))
(define-fun .def_214 () Bool (and .def_56 .def_213))
(define-fun .def_215 () Bool (and .def_58 .def_214))
(define-fun .def_216 () Bool (and .def_60 .def_215))
(define-fun .def_217 () Bool (and .def_62 .def_216))
(define-fun .def_218 () Bool (and .def_64 .def_217))
(define-fun .def_219 () Bool (and .def_66 .def_218))
(define-fun .def_220 () Bool (and .def_68 .def_219))
(define-fun .def_221 () Bool (and .def_70 .def_220))
(define-fun .def_222 () Bool (and .def_74 .def_221))
(define-fun .def_223 () Bool (and .def_76 .def_222))
(define-fun .def_224 () Bool (and .def_78 .def_223))
(define-fun .def_225 () Bool (and .def_80 .def_224))
(define-fun .def_226 () Bool (and .def_82 .def_225))
(define-fun .def_227 () Bool (and .def_197 .def_226))
(define-fun .def_228 () Bool (and .def_202 .def_227))
(define-fun .def_229 () Bool (and .def_205 .def_228))
(define-fun .def_231 () Bool (and .def_229 .def_230))
(define-fun .def_233 () Bool (and .def_231 .def_232))
(define-fun .def_181 () Bool (= .x.15 5))
(define-fun .def_234 () Bool (and .def_181 .def_233))
(define-fun .def_497 () Bool (or .def_234 .def_496))
(define-fun .def_209 () Bool (= .x.18 .def_208))
(define-fun .def_136 () Bool (and .def_56 .def_135))
(define-fun .def_137 () Bool (and .def_58 .def_136))
(define-fun .def_138 () Bool (and .def_60 .def_137))
(define-fun .def_139 () Bool (and .def_62 .def_138))
(define-fun .def_140 () Bool (and .def_64 .def_139))
(define-fun .def_141 () Bool (and .def_66 .def_140))
(define-fun .def_143 () Bool (and .def_141 .def_142))
(define-fun .def_144 () Bool (and .def_111 .def_143))
(define-fun .def_145 () Bool (and .def_68 .def_144))
(define-fun .def_146 () Bool (and .def_70 .def_145))
(define-fun .def_147 () Bool (and .def_74 .def_146))
(define-fun .def_148 () Bool (and .def_76 .def_147))
(define-fun .def_149 () Bool (and .def_78 .def_148))
(define-fun .def_150 () Bool (and .def_80 .def_149))
(define-fun .def_151 () Bool (and .def_82 .def_150))
(define-fun .def_153 () Bool (and .def_151 .def_152))
(define-fun .def_194 () Bool (and .def_153 .def_193))
(define-fun .def_198 () Bool (and .def_194 .def_197))
(define-fun .def_203 () Bool (and .def_198 .def_202))
(define-fun .def_206 () Bool (and .def_203 .def_205))
(define-fun .def_210 () Bool (and .def_206 .def_209))
(define-fun .def_498 () Bool (or .def_210 .def_497))
(define-fun .def_132 () Int (* (- 1) .def_22))
(define-fun .def_133 () Int (+ .def_12 .def_132))
(define-fun .def_134 () Bool (<= .def_133 1))
(define-fun .def_189 () Bool (not .def_134))
(define-fun .def_185 () Int (* (- 1) .x.19))
(define-fun .def_186 () Int (+ .def_22 .def_185))
(define-fun .def_187 () Bool (= .def_186 (- 1)))
(define-fun .def_155 () Int (+ .def_16 .def_22))
(define-fun .def_163 () (Array Int Int) (store .def_24 .def_155 46))
(define-fun .def_183 () Bool (= .x.20 .def_163))
(define-fun .def_168 () Bool (and .def_56 .def_167))
(define-fun .def_169 () Bool (and .def_58 .def_168))
(define-fun .def_170 () Bool (and .def_60 .def_169))
(define-fun .def_171 () Bool (and .def_62 .def_170))
(define-fun .def_172 () Bool (and .def_64 .def_171))
(define-fun .def_173 () Bool (and .def_66 .def_172))
(define-fun .def_174 () Bool (and .def_68 .def_173))
(define-fun .def_175 () Bool (and .def_70 .def_174))
(define-fun .def_176 () Bool (and .def_74 .def_175))
(define-fun .def_177 () Bool (and .def_76 .def_176))
(define-fun .def_178 () Bool (and .def_78 .def_177))
(define-fun .def_179 () Bool (and .def_80 .def_178))
(define-fun .def_180 () Bool (and .def_82 .def_179))
(define-fun .def_182 () Bool (and .def_180 .def_181))
(define-fun .def_184 () Bool (and .def_182 .def_183))
(define-fun .def_188 () Bool (and .def_184 .def_187))
(define-fun .def_190 () Bool (and .def_188 .def_189))
(define-fun .def_156 () Bool (<= .def_155 0))
(define-fun .def_157 () Bool (not .def_156))
(define-fun .def_158 () Bool (or .def_73 .def_157))
(define-fun .def_191 () Bool (and .def_158 .def_190))
(define-fun .def_161 () Bool (= .def_8 5))
(define-fun .def_192 () Bool (and .def_161 .def_191))
(define-fun .def_499 () Bool (or .def_192 .def_498))
(define-fun .def_164 () Bool (= .x.18 .def_163))
(define-fun .def_154 () Bool (and .def_134 .def_153))
(define-fun .def_159 () Bool (and .def_154 .def_158))
(define-fun .def_162 () Bool (and .def_159 .def_161))
(define-fun .def_165 () Bool (and .def_162 .def_164))
(define-fun .def_500 () Bool (or .def_165 .def_499))
(define-fun .def_124 () Int (* (- 1) .x.16))
(define-fun .def_125 () Int (+ .def_10 .def_124))
(define-fun .def_126 () Bool (= .def_125 (- 1)))
(define-fun .def_84 () Bool (<= .def_12 .def_10))
(define-fun .def_85 () Bool (not .def_84))
(define-fun .def_120 () Bool (and .def_14 .def_85))
(define-fun .def_121 () Bool (= .x.17 .def_120))
(define-fun .def_103 () Bool (and .def_50 .def_52))
(define-fun .def_104 () Bool (and .def_54 .def_103))
(define-fun .def_105 () Bool (and .def_56 .def_104))
(define-fun .def_106 () Bool (and .def_58 .def_105))
(define-fun .def_107 () Bool (and .def_60 .def_106))
(define-fun .def_108 () Bool (and .def_62 .def_107))
(define-fun .def_109 () Bool (and .def_64 .def_108))
(define-fun .def_110 () Bool (and .def_66 .def_109))
(define-fun .def_112 () Bool (and .def_110 .def_111))
(define-fun .def_113 () Bool (and .def_68 .def_112))
(define-fun .def_114 () Bool (and .def_70 .def_113))
(define-fun .def_115 () Bool (and .def_74 .def_114))
(define-fun .def_116 () Bool (and .def_76 .def_115))
(define-fun .def_117 () Bool (and .def_78 .def_116))
(define-fun .def_118 () Bool (and .def_80 .def_117))
(define-fun .def_119 () Bool (and .def_82 .def_118))
(define-fun .def_122 () Bool (and .def_119 .def_121))
(define-fun .def_127 () Bool (and .def_122 .def_126))
(define-fun .def_87 () Int (+ .def_10 .def_16))
(define-fun .def_96 () Int (select .def_18 .def_87))
(define-fun .def_97 () Bool (= .def_96 46))
(define-fun .def_128 () Bool (and .def_97 .def_127))
(define-fun .def_88 () Bool (<= .def_87 0))
(define-fun .def_89 () Bool (not .def_88))
(define-fun .def_90 () Bool (or .def_73 .def_89))
(define-fun .def_129 () Bool (and .def_90 .def_128))
(define-fun .def_93 () Bool (= .def_8 6))
(define-fun .def_130 () Bool (and .def_93 .def_129))
(define-fun .def_501 () Bool (or .def_130 .def_500))
(define-fun .def_101 () Bool (= .x.15 7))
(define-fun .def_98 () Bool (not .def_97))
(define-fun .def_47 () Bool (and .def_14 .def_46))
(define-fun .def_49 () Bool (and .def_47 .def_48))
(define-fun .def_51 () Bool (and .def_49 .def_50))
(define-fun .def_53 () Bool (and .def_51 .def_52))
(define-fun .def_55 () Bool (and .def_53 .def_54))
(define-fun .def_57 () Bool (and .def_55 .def_56))
(define-fun .def_59 () Bool (and .def_57 .def_58))
(define-fun .def_61 () Bool (and .def_59 .def_60))
(define-fun .def_63 () Bool (and .def_61 .def_62))
(define-fun .def_65 () Bool (and .def_63 .def_64))
(define-fun .def_67 () Bool (and .def_65 .def_66))
(define-fun .def_69 () Bool (and .def_67 .def_68))
(define-fun .def_71 () Bool (and .def_69 .def_70))
(define-fun .def_75 () Bool (and .def_71 .def_74))
(define-fun .def_77 () Bool (and .def_75 .def_76))
(define-fun .def_79 () Bool (and .def_77 .def_78))
(define-fun .def_81 () Bool (and .def_79 .def_80))
(define-fun .def_83 () Bool (and .def_81 .def_82))
(define-fun .def_86 () Bool (and .def_83 .def_85))
(define-fun .def_91 () Bool (and .def_86 .def_90))
(define-fun .def_94 () Bool (and .def_91 .def_93))
(define-fun .def_99 () Bool (and .def_94 .def_98))
(define-fun .def_102 () Bool (and .def_99 .def_101))
(define-fun .def_502 () Bool (or .def_102 .def_501))
(define-fun .def_504 () Bool (! (and .def_502 .def_503) :trans true))
(define-fun .def_505 () Bool (= .def_8 7))
(define-fun .def_506 () Bool (! (not .def_505) :invar-property 0))
(assert true)
